
Gurobi 6.0.4 (win64) logging started 06/14/15 17:06:35

Read LP format model from file C:\MT\repository\VRPTWMS\instances\mip\freight\N7-C_DV10-C_SV50_F16_10_No_1.lp
Reading time = 0.01 seconds
(null): 281 rows, 177 columns, 1137 nonzeros
Optimize a model with 281 rows, 177 columns and 1137 nonzeros
Model has 448 quadratic constraints
WARNING: Only barrier available for SOCP models
Coefficient statistics:
  Matrix range    [1e+00, 1e+02]
  Objective range [5e+00, 1e+03]
  Bounds range    [1e+00, 1e+02]
  RHS range       [1e+00, 1e+02]
Presolve removed 38 rows and 16 columns
Presolve time: 0.05s
Presolved: 1310 rows, 719 columns, 5912 nonzeros
Variable types: 509 continuous, 210 integer (164 binary)
Found heuristic solution: objective 7318.4600000
Optimize a model with 1310 rows, 719 columns and 5912 nonzeros
Coefficient statistics:
  Matrix range    [1e+00, 1e+02]
  Objective range [5e+00, 1e+03]
  Bounds range    [1e+00, 1e+02]
  RHS range       [1e+00, 1e+02]

Concurrent LP optimizer: dual simplex and barrier
Showing barrier log only...

Presolve removed 62 rows and 30 columns
Presolved: 1248 rows, 689 columns, 5556 nonzeros

Root barrier log...

Ordering time: 0.02s

Barrier performed 0 iterations in 0.08 seconds
Barrier solve interrupted - model solved by another algorithm


Solved with dual simplex
Solved in 238 iterations and 0.08 seconds
Optimal objective  6.037557290e+02

Root relaxation: objective 6.037557e+02, 238 iterations, 0.03 seconds

    Nodes    |    Current Node    |     Objective Bounds      |     Work
 Expl Unexpl |  Obj  Depth IntInf | Incumbent    BestBd   Gap | It/Node Time

     0     0  603.75573    0   60 7318.46000  603.75573  91.8%     -    0s
H    0     0                    5295.2800000  603.75573  88.6%     -    0s
     0     0  761.65320    0   65 5295.28000  761.65320  85.6%     -    0s
H    0     0                    4356.9100000  761.65320  82.5%     -    0s
     0     0  956.89979    0   47 4356.91000  956.89979  78.0%     -    0s
     0     0 1163.17492    0   93 4356.91000 1163.17492  73.3%     -    0s
H    0     0                    4219.6700000 1163.17492  72.4%     -    0s
     0     0 1166.89126    0   73 4219.67000 1166.89126  72.3%     -    0s
     0     0 1167.05251    0   99 4219.67000 1167.05251  72.3%     -    0s
     0     0 1167.23276    0   92 4219.67000 1167.23276  72.3%     -    0s
     0     0 1167.23276    0   99 4219.67000 1167.23276  72.3%     -    0s
     0     0 1167.23276    0  105 4219.67000 1167.23276  72.3%     -    0s
     0     0 1167.23276    0  105 4219.67000 1167.23276  72.3%     -    0s
     0     2 1167.23276    0  100 4219.67000 1167.23276  72.3%     -    0s
*  135    67              25    3282.2900000 1186.40556  63.9%  44.8    0s
*  287    93              21    3264.9000000 1446.44800  55.7%  39.7    0s
H  291    92                    3256.1000000 1446.44800  55.6%  39.2    0s
H 1028   163                    3248.4000000 1740.87483  46.4%  45.4    1s
H 1053   164                    3245.2000000 1754.96422  45.9%  45.2    1s
* 1825   186              17    3232.1400000 2218.21000  31.4%  41.3    2s

Cutting planes:
  Gomory: 2
  Cover: 160
  Implied bound: 180
  Clique: 40
  MIR: 94
  Flow cover: 8
  GUB cover: 18

Explored 3214 nodes (117355 simplex iterations) in 3.40 seconds
Thread count was 2 (of 4 available processors)

Optimal solution found (tolerance 1.00e-04)
Best objective 3.232140000000e+03, best bound 3.232140000000e+03, gap 0.0%
k_c1	10.0
k_c2	10.0
k_c3	5.0
k_c4	0.0
k_c5	-0.0
k_c6	4.0
k_c7	8.0
k_dN	-0.0
kDash_c1	8.0
kDash_c2	6.0
kDash_c3	-0.0
kDash_c4	-0.0
kDash_c5	4.0
kDash_c6	3.0
kDash_c7	4.0
o_1	0.0
o_2	0.0
o_3	0.0
o_4	1.0
o_5	1.0
o_6	0.0
o_7	-0.0
p_1	0.0
p_2	0.0
p_3	0.0
p_4	1.0
p_5	1.0
p_6	0.0
p_7	0.0
phi_c1	14.0
phi_c2	13.0
phi_c3	5.000000000000006
phi_c4	2.000000000000006
phi_c5	1.0
phi_c6	2.0
phi_c7	11.0
phi_d0	16.0
phi_dN	-0.0
pi_c1	1.999999999999858
pi_c2	3.999999999999858
pi_c3	9.999999999999858
pi_c4	9.999999999999858
pi_c5	19.999999999999858
pi_c6	6.999999999999858
pi_c7	13.999999999999858
pi_dN	-0.0
tauD_c1	9.0
tauD_c2	25.0
tauD_c3	65.0
tauD_c4	82.00000000000009
tauD_c5	71.0
tauD_c6	65.0
tauD_c7	25.0
tauD_d0	-0.0
tauD_dN	100.0
tauS_c1	87.0
tauS_c2	82.0
tauS_c3	81.0
tauS_c4	82.00000000000139
tauS_c5	2.9999999999999982
tauS_c6	90.00000000000001
tauS_c7	85.0
tauS_d0	-0.0
tauS_dN	95.00000000000068
x_c1_c7	1.0
x_c2_c3	1.0
x_c3_c4	1.0
x_c4_dN	1.0
x_c5_dN	1.0
x_c6_c5	1.0
x_c7_c6	1.0
x_d0_c1	1.0
x_d0_c2	1.0
z_c4_dN	0.9999999999999929
z_c5_c4	1.0
z_d0_c5	1.0
